Problem:    soluzione
Rows:       161
Columns:    4
Non-zeros:  364
Status:     OPTIMAL
Objective:  z = 421.3333333 (MINimum)

   No.   Row name   St   Activity     Lower bound   Upper bound    Marginal
------ ------------ -- ------------- ------------- ------------- -------------
     1 Soddisfazione[1,1]
                    B        3833.33            -0               
     2 Soddisfazione[1,2]
                    B            300            -0               
     3 Soddisfazione[1,3]
                    B        2046.67            -0               
     4 Soddisfazione[1,4]
                    B        3133.33           200               
     5 Soddisfazione[1,5]
                    B            200            20               
     6 Soddisfazione[1,6]
                    B            200            50               
     7 Soddisfazione[1,7]
                    B            400           100               
     8 Soddisfazione[1,8]
                    B           2820           300               
     9 Soddisfazione[2,1]
                    B        3833.33           200               
    10 Soddisfazione[2,2]
                    B            300           200               
    11 Soddisfazione[2,3]
                    B        2046.67           600               
    12 Soddisfazione[2,4]
                    B        3133.33            60               
    13 Soddisfazione[2,5]
                    B            200            40               
    14 Soddisfazione[2,6]
                    B            200            40               
    15 Soddisfazione[2,7]
                    B            400            -0               
    16 Soddisfazione[2,8]
                    B           2820           400               
    17 Soddisfazione[3,1]
                    B        3833.33            10               
    18 Soddisfazione[3,2]
                    B            300            50               
    19 Soddisfazione[3,3]
                    B        2046.67            10               
    20 Soddisfazione[3,4]
                    B        3133.33           100               
    21 Soddisfazione[3,5]
                    B            200            10               
    22 Soddisfazione[3,6]
                    B            200            30               
    23 Soddisfazione[3,7]
                    B            400            -0               
    24 Soddisfazione[3,8]
                    B           2820           400               
    25 Soddisfazione[4,1]
                    B        3833.33            50               
    26 Soddisfazione[4,2]
                    B            300            50               
    27 Soddisfazione[4,3]
                    B        2046.67           100               
    28 Soddisfazione[4,4]
                    B        3133.33            50               
    29 Soddisfazione[4,5]
                    B            200            10               
    30 Soddisfazione[4,6]
                    B            200            50               
    31 Soddisfazione[4,7]
                    B            400            50               
    32 Soddisfazione[4,8]
                    B           2820           500               
    33 Soddisfazione[5,1]
                    B        3833.33            -0               
    34 Soddisfazione[5,2]
                    B            300            50               
    35 Soddisfazione[5,3]
                    B        2046.67           500               
    36 Soddisfazione[5,4]
                    B        3133.33           900               
    37 Soddisfazione[5,5]
                    B            200            50               
    38 Soddisfazione[5,6]
                    B            200           100               
    39 Soddisfazione[5,7]
                    B            400           100               
    40 Soddisfazione[5,8]
                    B           2820           900               
    41 Soddisfazione[6,1]
                    B        3833.33            -0               
    42 Soddisfazione[6,2]
                    B            300            -0               
    43 Soddisfazione[6,3]
                    B        2046.67            -0               
    44 Soddisfazione[6,4]
                    B        3133.33            -0               
    45 Soddisfazione[6,5]
                    B            200            -0               
    46 Soddisfazione[6,6]
                    B            200            -0               
    47 Soddisfazione[6,7]
                    B            400            80               
    48 Soddisfazione[6,8]
                    B           2820            80               
    49 Soddisfazione[7,1]
                    B        3833.33            -0               
    50 Soddisfazione[7,2]
                    B            300            -0               
    51 Soddisfazione[7,3]
                    B        2046.67            20               
    52 Soddisfazione[7,4]
                    B        3133.33           300               
    53 Soddisfazione[7,5]
                    B            200            -0               
    54 Soddisfazione[7,6]
                    B            200            -0               
    55 Soddisfazione[7,7]
                    B            400            -0               
    56 Soddisfazione[7,8]
                    B           2820           400               
    57 Soddisfazione[8,1]
                    B        3833.33            -0               
    58 Soddisfazione[8,2]
                    B            300            -0               
    59 Soddisfazione[8,3]
                    B        2046.67           800               
    60 Soddisfazione[8,4]
                    B        3133.33           600               
    61 Soddisfazione[8,5]
                    B            200            50               
    62 Soddisfazione[8,6]
                    B            200           100               
    63 Soddisfazione[8,7]
                    B            400            -0               
    64 Soddisfazione[8,8]
                    B           2820          2000               
    65 Soddisfazione[9,1]
                    B        3833.33            -0               
    66 Soddisfazione[9,2]
                    NL           300           300                         0.4 
    67 Soddisfazione[9,3]
                    B        2046.67           300               
    68 Soddisfazione[9,4]
                    B        3133.33           300               
    69 Soddisfazione[9,5]
                    B            200            -0               
    70 Soddisfazione[9,6]
                    B            200            -0               
    71 Soddisfazione[9,7]
                    B            400            60               
    72 Soddisfazione[9,8]
                    B           2820           150               
    73 Soddisfazione[10,1]
                    B        3833.33          1000               
    74 Soddisfazione[10,2]
                    B            300            -0               
    75 Soddisfazione[10,3]
                    B        2046.67            -0               
    76 Soddisfazione[10,4]
                    B        3133.33            -0               
    77 Soddisfazione[10,5]
                    NL           200           200                           1 
    78 Soddisfazione[10,6]
                    B            200           100               
    79 Soddisfazione[10,7]
                    B            400            -0               
    80 Soddisfazione[10,8]
                    B           2820          1000               
    81 Soddisfazione[11,1]
                    B        3833.33            -0               
    82 Soddisfazione[11,2]
                    B            300           200               
    83 Soddisfazione[11,3]
                    B        2046.67            -0               
    84 Soddisfazione[11,4]
                    B        3133.33          1000               
    85 Soddisfazione[11,5]
                    B            200            -0               
    86 Soddisfazione[11,6]
                    B            200            -0               
    87 Soddisfazione[11,7]
                    B            400            -0               
    88 Soddisfazione[11,8]
                    B           2820           600               
    89 Soddisfazione[12,1]
                    B        3833.33            -0               
    90 Soddisfazione[12,2]
                    B            300            -0               
    91 Soddisfazione[12,3]
                    B        2046.67            -0               
    92 Soddisfazione[12,4]
                    B        3133.33            -0               
    93 Soddisfazione[12,5]
                    B            200            -0               
    94 Soddisfazione[12,6]
                    B            200            -0               
    95 Soddisfazione[12,7]
                    B            400           300               
    96 Soddisfazione[12,8]
                    B           2820            -0               
    97 Soddisfazione[13,1]
                    B        3833.33           500               
    98 Soddisfazione[13,2]
                    B            300            50               
    99 Soddisfazione[13,3]
                    B        2046.67           300               
   100 Soddisfazione[13,4]
                    B        3133.33           100               
   101 Soddisfazione[13,5]
                    B            200            -0               
   102 Soddisfazione[13,6]
                    B            200            -0               
   103 Soddisfazione[13,7]
                    B            400            -0               
   104 Soddisfazione[13,8]
                    B           2820          1000               
   105 Soddisfazione[14,1]
                    B        3833.33            -0               
   106 Soddisfazione[14,2]
                    B            300            -0               
   107 Soddisfazione[14,3]
                    B        2046.67            -0               
   108 Soddisfazione[14,4]
                    B        3133.33            -0               
   109 Soddisfazione[14,5]
                    B            200            -0               
   110 Soddisfazione[14,6]
                    B            200            -0               
   111 Soddisfazione[14,7]
                    B            400           160               
   112 Soddisfazione[14,8]
                    B           2820           400               
   113 Soddisfazione[15,1]
                    B        3833.33           100               
   114 Soddisfazione[15,2]
                    B            300            -0               
   115 Soddisfazione[15,3]
                    B        2046.67            -0               
   116 Soddisfazione[15,4]
                    B        3133.33          1200               
   117 Soddisfazione[15,5]
                    B            200            -0               
   118 Soddisfazione[15,6]
                    NL           200           200                    0.266667 
   119 Soddisfazione[15,7]
                    B            400            -0               
   120 Soddisfazione[15,8]
                    B           2820          1500               
   121 Soddisfazione[16,1]
                    B        3833.33           300               
   122 Soddisfazione[16,2]
                    B            300            -0               
   123 Soddisfazione[16,3]
                    B        2046.67            -0               
   124 Soddisfazione[16,4]
                    B        3133.33            60               
   125 Soddisfazione[16,5]
                    B            200            -0               
   126 Soddisfazione[16,6]
                    B            200            -0               
   127 Soddisfazione[16,7]
                    B            400            -0               
   128 Soddisfazione[16,8]
                    B           2820            60               
   129 Soddisfazione[17,1]
                    B        3833.33            -0               
   130 Soddisfazione[17,2]
                    B            300            20               
   131 Soddisfazione[17,3]
                    B        2046.67           100               
   132 Soddisfazione[17,4]
                    B        3133.33           900               
   133 Soddisfazione[17,5]
                    B            200            20               
   134 Soddisfazione[17,6]
                    B            200            50               
   135 Soddisfazione[17,7]
                    B            400            -0               
   136 Soddisfazione[17,8]
                    B           2820           600               
   137 Soddisfazione[18,1]
                    B        3833.33            -0               
   138 Soddisfazione[18,2]
                    B            300            -0               
   139 Soddisfazione[18,3]
                    B        2046.67            -0               
   140 Soddisfazione[18,4]
                    B        3133.33           200               
   141 Soddisfazione[18,5]
                    B            200            40               
   142 Soddisfazione[18,6]
                    B            200            -0               
   143 Soddisfazione[18,7]
                    B            400           200               
   144 Soddisfazione[18,8]
                    B           2820           400               
   145 Soddisfazione[19,1]
                    B        3833.33            -0               
   146 Soddisfazione[19,2]
                    B            300            80               
   147 Soddisfazione[19,3]
                    B        2046.67           200               
   148 Soddisfazione[19,4]
                    B        3133.33          1200               
   149 Soddisfazione[19,5]
                    B            200            -0               
   150 Soddisfazione[19,6]
                    B            200            -0               
   151 Soddisfazione[19,7]
                    NL           400           400                        0.12 
   152 Soddisfazione[19,8]
                    B           2820           400               
   153 Soddisfazione[20,1]
                    B        3833.33            -0               
   154 Soddisfazione[20,2]
                    B            300            -0               
   155 Soddisfazione[20,3]
                    B        2046.67            -0               
   156 Soddisfazione[20,4]
                    B        3133.33          1000               
   157 Soddisfazione[20,5]
                    B            200           100               
   158 Soddisfazione[20,6]
                    B            200            40               
   159 Soddisfazione[20,7]
                    B            400           100               
   160 Soddisfazione[20,8]
                    B           2820          1000               
   161 z            B        421.333                             

   No. Column name  St   Activity     Lower bound   Upper bound    Marginal
------ ------------ -- ------------- ------------- ------------- -------------
     1 ProdottiAcquistati[1]
                    B             40             0               
     2 ProdottiAcquistati[2]
                    B             60             0               
     3 ProdottiAcquistati[3]
                    B             16             0               
     4 ProdottiAcquistati[4]
                    B        13.3333             0               

Karush-Kuhn-Tucker optimality conditions:

KKT.PE: max.abs.err = 0.00e+000 on row 0
        max.rel.err = 0.00e+000 on row 0
        High quality

KKT.PB: max.abs.err = 0.00e+000 on row 0
        max.rel.err = 0.00e+000 on row 0
        High quality

KKT.DE: max.abs.err = 0.00e+000 on column 0
        max.rel.err = 0.00e+000 on column 0
        High quality

KKT.DB: max.abs.err = 0.00e+000 on row 0
        max.rel.err = 0.00e+000 on row 0
        High quality

End of output
